NAME : P133112.64390.tour
COMMENT : Length = 64390
COMMENT : Found by LKH-3 [Keld Helsgaun] Tue Dec 17 14:07:46 2024
TYPE : TOUR
DIMENSION : 170
TOUR_SECTION
1
161
2
27
23
26
31
19
112
30
107
99
102
97
101
95
110
106
104
113
92
91
100
108
98
96
103
94
111
109
93
114
105
15
29
81
76
70
66
77
73
88
89
71
68
90
83
87
75
78
82
69
86
67
84
72
80
79
74
85
20
35
17
36
25
24
18
162
3
137
127
120
16
126
128
131
119
135
138
133
121
125
118
123
117
116
129
115
130
124
39
141
32
22
21
136
122
37
134
132
140
139
163
4
164
5
165
6
166
7
167
8
168
9
169
10
12
14
28
33
57
44
42
52
50
64
51
43
63
48
53
47
56
49
65
58
62
46
55
54
60
41
40
45
59
61
149
143
150
146
142
155
158
145
156
160
159
154
144
148
153
147
151
152
157
38
13
11
34
170
-1
EOF
